Akira_Toriyama, 1955-04-05, 2,3,3,7,7,11,251
Alan_Parker, 1944-02-14, 2,3,3,3,3,43,349
Alberto_Contador, 1982-12-06, 3,3,3,3,3,29,347
Alejandro_González_Iñárritu, 1963-08-15, 2,2,2,2,3,79,643
Alessandro_Diamanti, 1983-05-02, 2,2,2,2,3,13,3919
Alex_Pettyfer, 1990-04-10, 3,3,7,7,7,13,61
Alexei_Shirov, 1972-07-04, 2,3,3,3,3,7,2153
Allvar_Gullstrand, 1862-06-05, 2,2,2,2,3,19,2633
Alyssa_Milano, 1972-12-19, 2,3,5,7,7,11,151
Anastacia, 1968-09-17, 2,2,3,3,7,23,421
Anatole_France, 1844-04-16, 2,2,2,2,3,7,7127
Andreu_Fontàs, 1989-11-14, 2,2,3,7,7,23,181
Andriy_Shevchenko, 1976-09-29, 2,3,3,5,5,61,89
André_Breton, 1896-02-19, 2,2,2,3,19,67,79
André_Citroën, 1878-02-05, 2,2,3,5,7,11,521
Angelos_Basinas, 1976-01-03, 2,2,3,3,5,41,331
Anna_Freud, 1895-12-03, 2,3,3,3,5,7,1277
Antonio_Meucci, 1808-04-13, 2,2,2,2,3,5,9923
Antonio_Nocerino, 1985-04-09, 2,2,3,3,7,17,571
Ariel_Sharon, 1928-02-26, 2,3,3,3,3,11,1361
Arne_Friedrich, 1979-05-29, 2,3,3,7,7,17,163
Askar_Akayev, 1944-11-10, 2,2,3,3,3,47,479
Ava_Gardner, 1922-12-24, 2,2,3,3,3,19,1181
Ayn_Rand, 1905-02-02, 2,3,3,3,3,3,4973
Bamir_Topi, 1957-04-24, 2,2,2,2,3,19,2671
Basshunter, 1984-12-22, 2,2,2,3,3,53,641
Ben_Wallace, 1974-09-10, 2,2,3,5,5,7,1163
Benni_McCarthy, 1977-12-11, 2,2,2,2,2,3,25453
Benny_Benassi, 1967-07-13, 2,2,3,3,13,13,401
Billy_Ray_Cyrus, 1961-08-25, 2,2,2,2,2,3,25391
Billy_Zane, 1966-02-24, 2,2,3,3,3,5,4517
Bjarne_Stroustrup, 1950-12-30, 3,3,3,3,3,5,2003
Bob_Geldof, 1951-10-05, 2,2,3,3,17,41,97
Bode_Miller, 1977-10-12, 2,2,3,3,13,23,227
Brett_Holman, 1984-03-27, 2,3,3,7,7,47,59
Burhanuddin_Rabbani, 1940-09-20, 2,2,3,3,3,149,151
Cardinal_Richelieu, 1585-09-09, 2,2,3,3,5,13,983
Cecil_B._DeMille, 1881-08-12, 2,2,2,2,3,131,383
Charles_I_of_Austria, 1887-08-17, 2,2,3,5,5,5,1607
Charles_Nicolle, 1866-09-21, 3,3,3,3,5,17,349
Chris_Columbus_(filmmaker), 1958-09-10, 2,2,2,3,11,11,839
Clifford_Geertz, 1926-08-23, 2,3,5,5,5,53,61
Connie_Francis, 1938-12-12, 2,2,3,3,3,83,271
Corey_Taylor, 1973-12-08, 2,2,2,3,3,13,2609
Dan_Brown, 1964-06-22, 2,2,2,3,3,11,3079
Daniel_arap_Moi, 1924-09-02, 2,3,5,7,7,17,97
David_Guetta, 1967-11-07, 3,3,3,3,7,13,331
Dean_Acheson, 1893-04-11, 2,2,3,7,7,11,373
Demy_de_Zeeuw, 1983-05-26, 2,2,2,3,3,5,6793
Dirk_Kuyt, 1980-07-22, 2,3,7,11,11,13,37
Eartha_Kitt, 1927-01-17, 3,3,3,3,3,17,587
Edson_Braafheid, 1983-04-08, 2,2,2,3,11,59,157
Eduardo_da_Silva, 1983-02-25, 2,3,3,3,3,5,3019
Ellen_Burstyn, 1932-12-07, 2,2,2,3,3,13,2593
Elmer_Bernstein, 1922-04-04, 2,2,3,7,7,13,317
Emma_Bunton, 1976-01-21, 2,3,3,3,3,17,887
Eusébio, 1942-01-25, 2,2,2,2,3,11,4603
Fanny_Ardant, 1949-03-22, 3,3,3,3,7,7,613
Fatmir_Sejdiu, 1951-10-23, 2,3,3,3,7,47,137
Fats_Domino, 1928-02-26, 2,3,3,3,3,11,1361
Felix_Magath, 1953-07-26, 2,2,2,3,19,19,281
Ferdinand_I_of_Austria, 1793-04-19, 2,2,2,2,3,59,839
Festus_Mogae, 1939-08-21, 2,2,2,3,3,41,823
Flórián_Albert, 1941-09-15, 2,2,3,3,11,17,361
Francesco_Redi, 1626-02-18, 2,2,2,2,3,17,2837
Frederick_Soddy, 1877-09-02, 2,2,2,2,3,41,1223
Fritz_Haber, 1868-12-09, 3,3,3,3,5,5,1187
Félix_Houphouët-Boigny, 1905-10-18, 2,2,2,2,3,37,1361
Gastón_Gaudio, 1978-12-09, 3,3,3,3,3,89,113
Geir_Haarde, 1951-04-08, 2,2,2,2,3,3,16901
Gene_Roddenberry, 1921-08-19, 2,2,2,3,5,61,331
Georg_von_Békésy, 1899-06-03, 2,2,2,3,3,11,3049
George_Clooney, 1961-05-06, 3,3,3,5,5,23,157
George_Harrison, 1943-02-25, 2,2,3,5,11,29,127
George_IV_of_the_United_Kingdom, 1762-08-12, 2,2,2,3,3,5,6569
Georges_Dumézil, 1898-03-04, 2,2,2,2,3,179,281
Gheorghe_Gheorghiu-Dej, 1901-11-08, 2,2,2,2,3,59,853
Giacinto_Facchetti, 1942-07-18, 2,3,3,13,13,17,47
Giulio_Andreotti, 1919-01-14, 2,2,3,3,7,7,1373
Gustaf_VI_Adolf_of_Sweden, 1882-11-11, 2,2,2,3,3,5,6691
H._G._Wells, 1866-09-21, 3,3,3,3,5,17,349
Hans-Adam_II,_Prince_of_Liechtenstein, 1945-02-14, 2,2,3,5,5,5,1621
Hans_Kelsen, 1881-10-11, 2,2,3,3,7,19,503
Haruki_Murakami, 1949-01-12, 2,2,2,2,2,3,25343
Hassanal_Bolkiah, 1946-07-15, 2,2,2,2,3,3,16889
Ian_Smith, 1919-04-08, 2,2,2,3,7,13,1109
Isabel_Martínez_de_Perón, 1931-02-04, 2,2,2,3,17,19,313
Ivan_Konev, 1897-12-28, 2,3,3,3,3,7,2129
Jack_Kevorkian, 1928-05-26, 2,2,2,2,3,3,16843
Jack_Kirby, 1917-08-28, 2,2,3,3,3,7,3203
James_Francis_Edward_Stuart, 1688-06-10, 2,3,3,5,5,5,1039
Jan_Fischer_(politician), 1951-01-02, 2,2,2,2,3,7,7243
Jarkko_Nieminen, 1981-07-23, 2,2,2,3,23,43,103
Jean_Marais, 1913-12-11, 2,2,2,2,3,127,397
Jennifer_Garner, 1972-04-17, 2,2,2,2,3,19,2677
Jim_Belushi, 1954-06-15, 2,2,3,7,7,41,101
Jim_Broadbent, 1949-05-24, 2,2,3,3,5,7,1931
Jimmie_Johnson, 1975-09-17, 2,2,2,2,3,3,16963
John_Belushi, 1949-01-24, 2,2,3,5,23,41,43
John_Candy, 1950-10-31, 3,5,7,7,7,11,43
John_Herschel, 1792-03-07, 2,2,2,3,3,5,6599
John_Stuart,_3rd_Earl_of_Bute, 1713-05-25, 2,2,2,2,3,13,3761
Joseph_Fouché, 1759-05-21, 3,3,3,3,3,71,137
Joseph_Gordon-Levitt, 1981-02-17, 2,2,3,3,7,89,109
Joseph_de_Maistre, 1753-04-01, 2,2,3,3,3,5,4373
Joss_Stone, 1987-04-11, 2,2,2,2,3,19,2683
Juan_Sebastián_Verón, 1975-03-09, 2,2,2,2,3,5,10177
Juanes, 1972-08-09, 2,3,3,11,11,19,59
Kajol, 1974-08-05, 2,2,2,3,11,11,841
Kamui_Kobayashi, 1986-09-13, 2,3,3,3,3,11,1373
Kangxi_Emperor, 1654-05-04, 2,3,3,3,17,17,149
Karel_Čapek, 1890-01-09, 2,2,2,2,3,11,4567
Karen_Blixen, 1885-04-17, 2,2,2,2,3,17,2953
Kate_Bosworth, 1983-01-02, 2,2,2,3,3,3,11321
Kate_Ryan, 1980-07-22, 2,3,7,11,11,13,37
Kate_Winslet, 1975-10-05, 2,3,3,3,5,83,109
Ken_Follett, 1949-06-05, 2,2,2,2,3,173,293
Kevin_Nolan, 1982-06-24, 2,2,2,3,13,17,461
Kiefer_Sutherland, 1966-12-21, 2,2,2,3,5,29,701
Kjetil_André_Aamodt, 1971-09-02, 2,2,3,3,19,43,83
Kostas_Karamanlis, 1956-09-14, 2,3,5,11,11,11,61
Kurt_Gödel, 1906-04-28, 2,2,2,2,3,3,16787
Lady_Bird_Johnson, 1912-12-22, 2,3,3,11,11,11,101
Lao_She, 1899-02-03, 2,2,2,2,2,3,25153
Laurent_Fabius, 1946-08-20, 2,2,3,3,3,7,3217
Leszek_Kołakowski, 1927-10-23, 2,2,2,3,3,13,2591
Lil_Jon, 1971-01-17, 2,2,2,3,19,53,101
Liu_Xiang, 1983-07-13, 2,2,2,3,19,31,173
Ludwig_von_Mises, 1881-09-29, 2,2,2,2,2,3,25087
Marcus_Garvey, 1887-08-17, 2,2,3,5,5,5,1607
Marek_Jankulovski, 1977-05-09, 2,2,2,3,13,41,191
Marie_Antoinette, 1755-11-02, 3,3,3,3,5,19,307
Mario_Capecchi, 1937-10-06, 2,2,3,3,3,43,523
Mary_Elizabeth_Winstead, 1984-11-28, 2,2,2,2,3,131,389
Mary_Lynn_Rajskub, 1971-06-22, 2,2,3,3,3,7,3229
Mary_Steenburgen, 1953-02-08, 2,2,2,2,3,41,1237
Matthias_Sammer, 1967-09-05, 2,3,3,7,17,17,67
Maumoon_Abdul_Gayoom, 1937-12-29, 2,2,2,2,2,3,25301
Michael_Emerson, 1954-09-07, 2,2,2,2,3,7,7247
Michael_Wittmann, 1914-04-22, 2,2,3,3,23,37,79
Michel_Teló, 1981-01-21, 3,3,5,5,5,41,53
Mike_Epps, 1970-11-18, 2,2,3,3,3,97,233
Mike_Oldfield, 1953-05-15, 2,2,2,2,3,67,757
Muhammad_Yunus, 1940-06-28, 2,2,2,2,3,223,227
Murray_Gell-Mann, 1929-09-15, 3,3,3,3,3,67,149
Naomi_Campbell, 1970-05-22, 2,2,2,3,3,109,311
Natascha_Kampusch, 1988-02-17, 2,2,2,3,3,41,829
Natasha_Richardson, 1963-05-11, 2,2,2,2,3,5,10159
Neil_Armstrong, 1930-08-05, 3,3,3,3,7,11,389
Nikos_Kazantzakis, 1883-02-18, 3,3,3,3,3,23,431
Norodom_Sihanouk, 1922-10-31, 2,3,3,3,3,7,2137
Ottmar_Hitzfeld, 1949-01-12, 2,2,2,2,2,3,25343
Otto_Hahn, 1879-03-08, 2,2,2,3,11,11,829
Pancho_Villa, 1878-06-05, 2,2,3,3,5,43,311
Paris_Hilton, 1981-02-17, 2,2,3,3,7,89,109
Pat_Morita, 1932-06-28, 2,3,3,7,11,17,103
Paul_Hogan, 1939-10-08, 2,2,2,3,13,13,599
Peter_Zumthor, 1943-04-26, 2,2,2,3,5,47,431
Philip_Pullman, 1946-10-19, 2,2,2,2,3,23,2203
Philippe_Noiret, 1930-10-01, 2,3,5,5,5,5,647
Pierre_Louis_Maupertuis, 1698-09-28, 2,2,2,3,3,17,1913
Pope_Alexander_VII, 1599-02-13, 3,3,3,5,5,5,683
Pope_Clement_XI, 1649-07-23, 2,2,3,3,19,43,79
Reinhold_Messner, 1944-09-17, 2,3,3,3,5,5,1801
René_Thom, 1923-09-02, 2,2,2,2,3,3,16831
Richard_Burns, 1971-01-17, 2,2,2,3,19,53,101
Richard_Harris, 1930-10-01, 2,3,5,5,5,5,647
Robert_Byrd, 1917-11-20, 2,2,2,2,3,7,7207
Robert_Jenkinson,_2nd_Earl_of_Liverpool, 1770-06-07, 2,2,2,2,3,107,461
Robert_Johnson, 1911-05-08, 2,2,3,3,11,41,149
Roy_Makaay, 1975-03-09, 2,2,2,2,3,5,10177
Rufus_Sewell, 1967-10-29, 2,2,2,2,3,3,16943
Ruud_Gullit, 1962-09-01, 2,2,3,11,11,23,73
Ryan_Phillippe, 1974-09-10, 2,2,3,5,5,7,1163
Serge_Haroche, 1944-09-11, 2,2,2,2,3,37,1369
Severo_Ochoa, 1905-09-24, 2,2,2,3,3,59,569
Shakira, 1977-02-02, 2,2,2,3,3,3,11311
Sherwood_Anderson, 1876-09-13, 2,3,3,3,3,5,2971
Simo_Häyhä, 1905-12-17, 2,2,3,17,17,17,41
Skandar_Keynes, 1991-09-05, 2,2,2,3,3,31,1097
Slash_(musician), 1965-07-23, 2,2,3,3,3,11,2053
Sonja_Henie, 1912-04-08, 2,2,3,5,5,5,1613
Stefan_Edberg, 1966-01-19, 2,2,2,3,3,19,1783
Steve_Wozniak, 1950-08-11, 2,2,2,2,2,3,25349
Tim_Rice, 1944-11-10, 2,2,3,3,3,47,479
Timothy_Dalton, 1944-03-21, 2,3,3,5,7,17,227
Tomasz_Kuszczak, 1982-03-20, 2,2,2,3,3,29,1171
Viktor_Zubkov, 1941-09-15, 2,2,3,3,11,17,361
Wes_Montgomery, 1923-03-06, 2,2,3,3,7,59,163
Wilfred_Owen, 1893-03-18, 2,2,3,3,5,13,1031
William_Hurt, 1950-03-20, 2,2,2,2,3,5,10139
William_Styron, 1925-06-11, 2,2,2,3,3,11,3061
Władysław_Sikorski, 1881-05-20, 2,2,3,3,5,17,787
Yossi_Benayoun, 1980-05-05, 2,2,3,3,3,13,1741
Zaha_Hadid, 1950-10-31, 3,5,7,7,7,11,43
