Ludwig_von_Mises, 1881-09-29, 2,2,2,2,2,3,25087, 50559.04762
