Benni_McCarthy, 1977-12-11, 2,2,2,2,2,3,25453
Billy_Ray_Cyrus, 1961-08-25, 2,2,2,2,2,3,25391
Haruki_Murakami, 1949-01-12, 2,2,2,2,2,3,25343
Lao_She, 1899-02-03, 2,2,2,2,2,3,25153
Ludwig_von_Mises, 1881-09-29, 2,2,2,2,2,3,25087
Maumoon_Abdul_Gayoom, 1937-12-29, 2,2,2,2,2,3,25301
Ottmar_Hitzfeld, 1949-01-12, 2,2,2,2,2,3,25343
Steve_Wozniak, 1950-08-11, 2,2,2,2,2,3,25349
