Alejandro_González_Iñárritu, 1963-08-15, 2,2,2,2,3,79,643
Alejandro_Sanz, 1968-12-18, 2,2,2,2,19,23,349
Alessandro_Diamanti, 1983-05-02, 2,2,2,2,3,13,3919
Allvar_Gullstrand, 1862-06-05, 2,2,2,2,3,19,2633
Anatole_France, 1844-04-16, 2,2,2,2,3,7,7127
Ante_Gotovina, 1955-10-12, 2,2,2,2,2,2,38053
Antonio_Meucci, 1808-04-13, 2,2,2,2,3,5,9923
Art_Tatum, 1909-10-13, 2,2,2,2,2,11,6871
Asafa_Powell, 1982-11-23, 2,2,2,2,7,7,3119
Auguste_de_Marmont, 1774-07-20, 2,2,2,2,5,5,5923
Augustus_De_Morgan, 1806-06-27, 2,2,2,2,2,2,37201
Bamir_Topi, 1957-04-24, 2,2,2,2,3,19,2671
Benedict_Arnold, 1741-01-14, 2,2,2,2,2,5,14731
Benni_McCarthy, 1977-12-11, 2,2,2,2,2,3,25453
Bernard_Montgomery,_1st_Viscount_Montgomery_of_Alamein, 1887-11-17, 2,2,2,2,2,71,1061
Billy_Ray_Cyrus, 1961-08-25, 2,2,2,2,2,3,25391
Blaise_Compaoré, 1951-02-03, 2,2,2,2,5,29,1049
Cecil_B._DeMille, 1881-08-12, 2,2,2,2,3,131,383
Charles_X_of_France, 1757-10-09, 2,2,2,2,2,2,36923
Charlton_Heston, 1923-10-04, 2,2,2,2,11,47,293
Chris_Evans_(actor), 1981-06-13, 2,2,2,2,2,19,4021
Connie_Nielsen, 1965-07-03, 2,2,2,2,2,199,383
David_Lynch, 1946-01-20, 2,2,2,2,2,5,15199
Debby_Ryan, 1993-05-13, 2,2,2,2,2,5,15307
Eddie_Vedder, 1964-12-23, 2,2,2,2,2,17,4483
Elizabeth_Mitchell, 1970-03-27, 2,2,2,2,2,13,5867
Elle_Fanning, 1998-04-09, 2,2,2,2,2,191,401
Ellen_Johnson_Sirleaf, 1938-10-29, 2,2,2,2,5,5,6073
Erich_Raeder, 1876-04-24, 2,2,2,2,2,139,541
Eusébio, 1942-01-25, 2,2,2,2,3,11,4603
Ferdinand_Buisson, 1841-12-20, 2,2,2,2,2,239,313
Ferdinand_I_of_Austria, 1793-04-19, 2,2,2,2,3,59,839
Francesco_Redi, 1626-02-18, 2,2,2,2,3,17,2837
Frederick_Soddy, 1877-09-02, 2,2,2,2,3,41,1223
Fyodor_Dostoyevsky, 1821-11-11, 2,2,2,2,5,23,1297
Félix_Houphouët-Boigny, 1905-10-18, 2,2,2,2,3,37,1361
Gao_Xingjian, 1940-01-04, 2,2,2,2,2,2,37963
Geir_Haarde, 1951-04-08, 2,2,2,2,3,3,16901
George_Marshall, 1880-12-31, 2,2,2,2,5,31,971
Georges_Dumézil, 1898-03-04, 2,2,2,2,3,179,281
Gertrude_B._Elion, 1918-01-23, 2,2,2,2,17,29,307
Gheorghe_Gheorghiu-Dej, 1901-11-08, 2,2,2,2,3,59,853
Gordon_Bajnai, 1968-03-05, 2,2,2,2,5,7,4357
Gus_Grissom, 1926-04-03, 2,2,2,2,2,17,4457
Guy_Demel, 1981-06-13, 2,2,2,2,2,19,4021
Gérard_Depardieu, 1948-12-27, 2,2,2,2,19,53,151
Hagen_Kleinert, 1941-06-15, 2,2,2,2,5,37,821
Haruki_Murakami, 1949-01-12, 2,2,2,2,2,3,25343
Hassanal_Bolkiah, 1946-07-15, 2,2,2,2,3,3,16889
Hu_Jia_(activist), 1973-07-25, 2,2,2,2,2,137,557
I._M._Pei, 1917-04-26, 2,2,2,2,2,17,4451
Ivan_VI_of_Russia, 1740-08-23, 2,2,2,2,7,11,1913
Jack_Kevorkian, 1928-05-26, 2,2,2,2,3,3,16843
Jack_Ruby, 1911-03-25, 2,2,2,2,5,11,2749
Jackson_Rathbone, 1984-12-14, 2,2,2,2,2,11,6949
Jan_Fischer_(politician), 1951-01-02, 2,2,2,2,3,7,7243
Jan_Peter_Balkenende, 1956-05-07, 2,2,2,2,5,5,6089
Jaume_Bartumeu, 1954-11-10, 2,2,2,2,13,23,509
Jean-Marie_Lehn, 1939-09-30, 2,2,2,2,2,23,3301
Jean_Marais, 1913-12-11, 2,2,2,2,3,127,397
Jennifer_Garner, 1972-04-17, 2,2,2,2,3,19,2677
Jimmie_Johnson, 1975-09-17, 2,2,2,2,3,3,16963
John_Locke, 1632-08-29, 2,2,2,2,2,2,36209
John_Malkovich, 1953-12-09, 2,2,2,2,2,5,15217
John_Singer_Sargent, 1856-01-12, 2,2,2,2,5,157,191
John_Stuart,_3rd_Earl_of_Bute, 1713-05-25, 2,2,2,2,3,13,3761
Joseph_Louis_Gay-Lussac, 1778-12-06, 2,2,2,2,5,5,5927
Joss_Stone, 1987-04-11, 2,2,2,2,3,19,2683
Juan_Sebastián_Verón, 1975-03-09, 2,2,2,2,3,5,10177
Jude_Law, 1972-12-29, 2,2,2,2,5,23,1327
Julia_Louis-Dreyfus, 1961-01-13, 2,2,2,2,2,2,38083
Karel_Čapek, 1890-01-09, 2,2,2,2,3,11,4567
Karen_Blixen, 1885-04-17, 2,2,2,2,3,17,2953
Ken_Follett, 1949-06-05, 2,2,2,2,3,173,293
Kevin_Phillips_(footballer), 1973-07-25, 2,2,2,2,2,137,557
Kurt_Gödel, 1906-04-28, 2,2,2,2,3,3,16787
Kwadwo_Asamoah, 1988-12-09, 2,2,2,2,19,83,97
Lao_She, 1899-02-03, 2,2,2,2,2,3,25153
Leslie_Cheung, 1956-09-12, 2,2,2,2,41,47,79
Liv_Ullmann, 1938-12-16, 2,2,2,2,2,2,37957
Ludwig_von_Mises, 1881-09-29, 2,2,2,2,2,3,25087
Luiz_Felipe_Scolari, 1948-11-09, 2,2,2,2,2,7,10861
M._Shadows, 1981-07-31, 2,2,2,2,11,29,479
Marcel_Duchamp, 1887-07-28, 2,2,2,2,5,29,1039
Mariah_Carey, 1970-03-27, 2,2,2,2,2,13,5867
Mariza, 1973-12-16, 2,2,2,2,19,29,277
Marta_(footballer), 1986-02-19, 2,2,2,2,5,53,577
Martin_Petrov, 1979-01-15, 2,2,2,2,23,29,229
Mary_Elizabeth_Winstead, 1984-11-28, 2,2,2,2,3,131,389
Mary_McAleese, 1951-06-27, 2,2,2,2,2,19,4003
Mary_Steenburgen, 1953-02-08, 2,2,2,2,3,41,1237
Maumoon_Abdul_Gayoom, 1937-12-29, 2,2,2,2,2,3,25301
Michael_Emerson, 1954-09-07, 2,2,2,2,3,7,7247
Michael_Sata, 1937-07-06, 2,2,2,2,5,7,4337
Miep_Gies, 1909-02-15, 2,2,2,2,17,17,523
Mike_Oldfield, 1953-05-15, 2,2,2,2,3,67,757
Muhammad_Yunus, 1940-06-28, 2,2,2,2,3,223,227
Natasha_Richardson, 1963-05-11, 2,2,2,2,3,5,10159
Nguyễn_Minh_Triết, 1942-10-08, 2,2,2,2,5,23,1321
Nikolaas_Tinbergen, 1907-04-15, 2,2,2,2,5,47,643
Ottmar_Hitzfeld, 1949-01-12, 2,2,2,2,2,3,25343
Pedro_Almodóvar, 1949-09-25, 2,2,2,2,2,13,5849
Peter_Higgs, 1929-05-29, 2,2,2,2,2,5,15161
Philip_Pullman, 1946-10-19, 2,2,2,2,3,23,2203
Rafael_Benítez, 1960-04-16, 2,2,2,2,5,41,743
Rene_Krhin, 1990-05-21, 2,2,2,2,2,113,677
René_Thom, 1923-09-02, 2,2,2,2,3,3,16831
Robert_Burns_Woodward, 1917-04-10, 2,2,2,2,7,13,1663
Robert_Byrd, 1917-11-20, 2,2,2,2,3,7,7207
Robert_Cecil,_1st_Viscount_Cecil_of_Chelwood, 1864-09-14, 2,2,2,2,29,31,167
Robert_Jenkinson,_2nd_Earl_of_Liverpool, 1770-06-07, 2,2,2,2,3,107,461
Robert_Patrick, 1958-11-05, 2,2,2,2,2,13,5857
Romelu_Lukaku, 1993-05-13, 2,2,2,2,2,5,15307
Roy_Makaay, 1975-03-09, 2,2,2,2,3,5,10177
Rudolf_Kirchschläger, 1915-03-20, 2,2,2,2,2,67,1129
Rufus_Sewell, 1967-10-29, 2,2,2,2,3,3,16943
Serge_Haroche, 1944-09-11, 2,2,2,2,3,37,1369
Sergei_Bondarchuk, 1920-09-25, 2,2,2,2,2,2,37853
Sirhan_Sirhan, 1944-03-19, 2,2,2,2,2,2,37987
Sotiris_Ninis, 1990-04-03, 2,2,2,2,7,11,1987
Steve_Wozniak, 1950-08-11, 2,2,2,2,2,3,25349
Terry_O'Quinn, 1952-07-15, 2,2,2,2,2,7,10867
Thomas_Gravesen, 1976-03-11, 2,2,2,2,2,97,787
Uli_Hoeneß, 1952-01-05, 2,2,2,2,2,13,5851
Wilhelm_Marx, 1863-01-15, 2,2,2,2,5,11,2729
Willard_Boyle, 1924-08-19, 2,2,2,2,7,23,941
William_Holman_Hunt, 1827-04-02, 2,2,2,2,2,101,739
William_Hurt, 1950-03-20, 2,2,2,2,3,5,10139
Yannick_Noah, 1960-05-18, 2,2,2,2,11,61,227
