Ludwig_von_Mises, 1881-09-29, 23,104711, 50559.04762
