Ante_Gotovina, 1955-10-12, 2,2,2,2,2,2,38053
Art_Tatum, 1909-10-13, 2,2,2,2,2,11,6871
Augustus_De_Morgan, 1806-06-27, 2,2,2,2,2,2,37201
Benedict_Arnold, 1741-01-14, 2,2,2,2,2,5,14731
Benni_McCarthy, 1977-12-11, 2,2,2,2,2,3,25453
Bernard_Montgomery,_1st_Viscount_Montgomery_of_Alamein, 1887-11-17, 2,2,2,2,2,71,1061
Billy_Ray_Cyrus, 1961-08-25, 2,2,2,2,2,3,25391
Charles_X_of_France, 1757-10-09, 2,2,2,2,2,2,36923
Chris_Evans_(actor), 1981-06-13, 2,2,2,2,2,19,4021
Connie_Nielsen, 1965-07-03, 2,2,2,2,2,199,383
David_Lynch, 1946-01-20, 2,2,2,2,2,5,15199
Debby_Ryan, 1993-05-13, 2,2,2,2,2,5,15307
Eddie_Vedder, 1964-12-23, 2,2,2,2,2,17,4483
Elizabeth_Mitchell, 1970-03-27, 2,2,2,2,2,13,5867
Elle_Fanning, 1998-04-09, 2,2,2,2,2,191,401
Erich_Raeder, 1876-04-24, 2,2,2,2,2,139,541
Ferdinand_Buisson, 1841-12-20, 2,2,2,2,2,239,313
Gao_Xingjian, 1940-01-04, 2,2,2,2,2,2,37963
Gus_Grissom, 1926-04-03, 2,2,2,2,2,17,4457
Guy_Demel, 1981-06-13, 2,2,2,2,2,19,4021
Haruki_Murakami, 1949-01-12, 2,2,2,2,2,3,25343
Hu_Jia_(activist), 1973-07-25, 2,2,2,2,2,137,557
I._M._Pei, 1917-04-26, 2,2,2,2,2,17,4451
Jackson_Rathbone, 1984-12-14, 2,2,2,2,2,11,6949
Jean-Marie_Lehn, 1939-09-30, 2,2,2,2,2,23,3301
John_Locke, 1632-08-29, 2,2,2,2,2,2,36209
John_Malkovich, 1953-12-09, 2,2,2,2,2,5,15217
Julia_Louis-Dreyfus, 1961-01-13, 2,2,2,2,2,2,38083
Kevin_Phillips_(footballer), 1973-07-25, 2,2,2,2,2,137,557
Lao_She, 1899-02-03, 2,2,2,2,2,3,25153
Liv_Ullmann, 1938-12-16, 2,2,2,2,2,2,37957
Ludwig_von_Mises, 1881-09-29, 2,2,2,2,2,3,25087
Luiz_Felipe_Scolari, 1948-11-09, 2,2,2,2,2,7,10861
Mariah_Carey, 1970-03-27, 2,2,2,2,2,13,5867
Mary_McAleese, 1951-06-27, 2,2,2,2,2,19,4003
Maumoon_Abdul_Gayoom, 1937-12-29, 2,2,2,2,2,3,25301
Ottmar_Hitzfeld, 1949-01-12, 2,2,2,2,2,3,25343
Pedro_Almodóvar, 1949-09-25, 2,2,2,2,2,13,5849
Peter_Higgs, 1929-05-29, 2,2,2,2,2,5,15161
Rene_Krhin, 1990-05-21, 2,2,2,2,2,113,677
Robert_Patrick, 1958-11-05, 2,2,2,2,2,13,5857
Romelu_Lukaku, 1993-05-13, 2,2,2,2,2,5,15307
Rudolf_Kirchschläger, 1915-03-20, 2,2,2,2,2,67,1129
Sergei_Bondarchuk, 1920-09-25, 2,2,2,2,2,2,37853
Sirhan_Sirhan, 1944-03-19, 2,2,2,2,2,2,37987
Steve_Wozniak, 1950-08-11, 2,2,2,2,2,3,25349
Terry_O'Quinn, 1952-07-15, 2,2,2,2,2,7,10867
Thomas_Gravesen, 1976-03-11, 2,2,2,2,2,97,787
Uli_Hoeneß, 1952-01-05, 2,2,2,2,2,13,5851
William_Holman_Hunt, 1827-04-02, 2,2,2,2,2,101,739
