Alejandro_González_Iñárritu, 1963-08-15, 2,2,2,2,3,79,643
Alessandro_Diamanti, 1983-05-02, 2,2,2,2,3,13,3919
Allvar_Gullstrand, 1862-06-05, 2,2,2,2,3,19,2633
Anatole_France, 1844-04-16, 2,2,2,2,3,7,7127
Antonio_Meucci, 1808-04-13, 2,2,2,2,3,5,9923
Bamir_Topi, 1957-04-24, 2,2,2,2,3,19,2671
Benni_McCarthy, 1977-12-11, 2,2,2,2,2,3,25453
Billy_Ray_Cyrus, 1961-08-25, 2,2,2,2,2,3,25391
Cecil_B._DeMille, 1881-08-12, 2,2,2,2,3,131,383
Eusébio, 1942-01-25, 2,2,2,2,3,11,4603
Ferdinand_I_of_Austria, 1793-04-19, 2,2,2,2,3,59,839
Francesco_Redi, 1626-02-18, 2,2,2,2,3,17,2837
Frederick_Soddy, 1877-09-02, 2,2,2,2,3,41,1223
Félix_Houphouët-Boigny, 1905-10-18, 2,2,2,2,3,37,1361
Geir_Haarde, 1951-04-08, 2,2,2,2,3,3,16901
Georges_Dumézil, 1898-03-04, 2,2,2,2,3,179,281
Gheorghe_Gheorghiu-Dej, 1901-11-08, 2,2,2,2,3,59,853
Haruki_Murakami, 1949-01-12, 2,2,2,2,2,3,25343
Hassanal_Bolkiah, 1946-07-15, 2,2,2,2,3,3,16889
Jack_Kevorkian, 1928-05-26, 2,2,2,2,3,3,16843
Jan_Fischer_(politician), 1951-01-02, 2,2,2,2,3,7,7243
Jean_Marais, 1913-12-11, 2,2,2,2,3,127,397
Jennifer_Garner, 1972-04-17, 2,2,2,2,3,19,2677
Jimmie_Johnson, 1975-09-17, 2,2,2,2,3,3,16963
John_Stuart,_3rd_Earl_of_Bute, 1713-05-25, 2,2,2,2,3,13,3761
Joss_Stone, 1987-04-11, 2,2,2,2,3,19,2683
Juan_Sebastián_Verón, 1975-03-09, 2,2,2,2,3,5,10177
Karel_Čapek, 1890-01-09, 2,2,2,2,3,11,4567
Karen_Blixen, 1885-04-17, 2,2,2,2,3,17,2953
Ken_Follett, 1949-06-05, 2,2,2,2,3,173,293
Kurt_Gödel, 1906-04-28, 2,2,2,2,3,3,16787
Lao_She, 1899-02-03, 2,2,2,2,2,3,25153
Ludwig_von_Mises, 1881-09-29, 2,2,2,2,2,3,25087
Mary_Elizabeth_Winstead, 1984-11-28, 2,2,2,2,3,131,389
Mary_Steenburgen, 1953-02-08, 2,2,2,2,3,41,1237
Maumoon_Abdul_Gayoom, 1937-12-29, 2,2,2,2,2,3,25301
Michael_Emerson, 1954-09-07, 2,2,2,2,3,7,7247
Mike_Oldfield, 1953-05-15, 2,2,2,2,3,67,757
Muhammad_Yunus, 1940-06-28, 2,2,2,2,3,223,227
Natasha_Richardson, 1963-05-11, 2,2,2,2,3,5,10159
Ottmar_Hitzfeld, 1949-01-12, 2,2,2,2,2,3,25343
Philip_Pullman, 1946-10-19, 2,2,2,2,3,23,2203
René_Thom, 1923-09-02, 2,2,2,2,3,3,16831
Robert_Byrd, 1917-11-20, 2,2,2,2,3,7,7207
Robert_Jenkinson,_2nd_Earl_of_Liverpool, 1770-06-07, 2,2,2,2,3,107,461
Roy_Makaay, 1975-03-09, 2,2,2,2,3,5,10177
Rufus_Sewell, 1967-10-29, 2,2,2,2,3,3,16943
Serge_Haroche, 1944-09-11, 2,2,2,2,3,37,1369
Steve_Wozniak, 1950-08-11, 2,2,2,2,2,3,25349
William_Hurt, 1950-03-20, 2,2,2,2,3,5,10139
